solution status: optimal solution found
objective value:                     266841.073132523
d11(0,0)                                            1 	(obj:0)
d11(1,1)                                            1 	(obj:0)
d11(1,2)                                            1 	(obj:0)
d11(2,3)                                            1 	(obj:0)
d11(2,5)                                            1 	(obj:0)
d11(2,6)                                            1 	(obj:0)
d11(3,7)                                            1 	(obj:0)
d11(3,9)                                            1 	(obj:0)
d11(3,11)                                           1 	(obj:0)
d11(3,13)                                           1 	(obj:0)
d11(4,15)                                           1 	(obj:0)
d11(4,16)                                           1 	(obj:0)
d11(4,17)                                           1 	(obj:0)
d11(4,19)                                           1 	(obj:0)
d11(4,21)                                           1 	(obj:0)
d11(4,23)                                           1 	(obj:0)
d11(4,25)                                           1 	(obj:0)
d11(4,27)                                           1 	(obj:0)
d11(4,29)                                           1 	(obj:0)
d11(4,30)                                           1 	(obj:0)
d11(5,31)                                           1 	(obj:0)
d11(5,32)                                           1 	(obj:0)
d11(5,33)                                           1 	(obj:0)
d11(5,35)                                           1 	(obj:0)
d11(5,36)                                           1 	(obj:0)
d11(5,37)                                           1 	(obj:0)
d11(5,38)                                           1 	(obj:0)
d11(5,39)                                           1 	(obj:0)
d11(5,41)                                           1 	(obj:0)
d11(5,43)                                           1 	(obj:0)
d11(5,44)                                           1 	(obj:0)
d11(5,45)                                           1 	(obj:0)
d11(5,47)                                           1 	(obj:0)
d11(5,49)                                           1 	(obj:0)
d11(5,50)                                           1 	(obj:0)
d11(5,51)                                           1 	(obj:0)
d11(5,52)                                           1 	(obj:0)
d11(5,53)                                           1 	(obj:0)
d11(5,54)                                           1 	(obj:0)
d11(5,55)                                           1 	(obj:0)
d11(5,57)                                           1 	(obj:0)
d11(5,58)                                           1 	(obj:0)
d11(5,59)                                           1 	(obj:0)
d11(5,60)                                           1 	(obj:0)
d11(5,61)                                           1 	(obj:0)
d11(6,63)                                           1 	(obj:0)
d11(6,64)                                           1 	(obj:0)
d11(6,65)                                           1 	(obj:0)
d11(6,66)                                           1 	(obj:0)
d11(6,67)                                           1 	(obj:0)
d11(6,68)                                           1 	(obj:0)
d11(6,69)                                           1 	(obj:0)
d11(6,70)                                           1 	(obj:0)
d11(6,71)                                           1 	(obj:0)
d11(6,72)                                           1 	(obj:0)
d11(6,73)                                           1 	(obj:0)
d11(6,74)                                           1 	(obj:0)
d11(6,75)                                           1 	(obj:0)
d11(6,76)                                           1 	(obj:0)
d11(6,77)                                           1 	(obj:0)
d11(6,78)                                           1 	(obj:0)
d11(6,79)                                           1 	(obj:0)
d11(6,80)                                           1 	(obj:0)
d11(6,81)                                           1 	(obj:0)
d11(6,82)                                           1 	(obj:0)
d11(6,83)                                           1 	(obj:0)
d11(6,84)                                           1 	(obj:0)
d11(6,85)                                           1 	(obj:0)
d11(6,86)                                           1 	(obj:0)
d11(6,87)                                           1 	(obj:0)
d11(6,88)                                           1 	(obj:0)
d11(6,89)                                           1 	(obj:0)
d11(6,90)                                           1 	(obj:0)
d11(6,91)                                           1 	(obj:0)
d11(6,92)                                           1 	(obj:0)
d11(6,93)                                           1 	(obj:0)
d11(6,94)                                           1 	(obj:0)
d11(6,95)                                           1 	(obj:0)
d11(6,96)                                           1 	(obj:0)
d11(6,97)                                           1 	(obj:0)
d11(6,98)                                           1 	(obj:0)
d11(6,99)                                           1 	(obj:0)
d11(6,100)                                          1 	(obj:0)
d11(6,101)                                          1 	(obj:0)
d11(6,102)                                          1 	(obj:0)
d11(6,103)                                          1 	(obj:0)
d11(6,104)                                          1 	(obj:0)
d11(6,105)                                          1 	(obj:0)
d11(6,107)                                          1 	(obj:0)
d11(6,109)                                          1 	(obj:0)
d11(6,110)                                          1 	(obj:0)
d11(6,111)                                          1 	(obj:0)
d11(6,112)                                          1 	(obj:0)
d11(6,113)                                          1 	(obj:0)
d11(6,114)                                          1 	(obj:0)
d11(6,115)                                          1 	(obj:0)
d11(6,116)                                          1 	(obj:0)
d11(6,117)                                          1 	(obj:0)
d11(6,118)                                          1 	(obj:0)
d11(6,119)                                          1 	(obj:0)
d11(6,121)                                          1 	(obj:0)
d11(6,122)                                          1 	(obj:0)
d11(6,123)                                          1 	(obj:0)
d11(6,124)                                          1 	(obj:0)
d11(6,125)                                          1 	(obj:0)
d11(6,126)                                          1 	(obj:0)
d21(5,31)                                           1 	(obj:0)
d21(5,32)                                           1 	(obj:0)
d21(5,33)                                           1 	(obj:0)
d21(5,35)                                           1 	(obj:0)
d21(5,39)                                           1 	(obj:0)
d21(5,47)                                           1 	(obj:0)
d21(6,63)                                           1 	(obj:0)
d21(6,64)                                           1 	(obj:0)
d21(6,65)                                           1 	(obj:0)
d21(6,66)                                           1 	(obj:0)
d21(6,67)                                           1 	(obj:0)
d21(6,68)                                           1 	(obj:0)
d21(6,69)                                           1 	(obj:0)
d21(6,71)                                           1 	(obj:0)
d21(6,72)                                           1 	(obj:0)
d21(6,73)                                           1 	(obj:0)
d21(6,75)                                           1 	(obj:0)
d21(6,77)                                           1 	(obj:0)
d21(6,79)                                           1 	(obj:0)
d21(6,80)                                           1 	(obj:0)
d21(6,81)                                           1 	(obj:0)
d21(6,83)                                           1 	(obj:0)
d21(6,87)                                           1 	(obj:0)
d21(6,95)                                           1 	(obj:0)
d21(6,96)                                           1 	(obj:0)
d21(6,97)                                           1 	(obj:0)
d21(6,99)                                           1 	(obj:0)
d21(6,103)                                          1 	(obj:0)
d21(6,111)                                          1 	(obj:0)
STE(1,1)                             11191.4997977777 	(obj:0)
STE(0,0)                                        15750 	(obj:0)
STE(1,2)                             12849.7496966664 	(obj:0)
STE(2,3)                             8273.24989888885 	(obj:0)
STE(2,4)                             9931.49979777766 	(obj:0)
STE(2,5)                             9931.49979777762 	(obj:0)
STE(2,6)                             11589.7496966664 	(obj:0)
STE(3,7)                             5355.00000000008 	(obj:0)
STE(3,8)                             7013.24989888885 	(obj:0)
STE(3,9)                             7013.24989888889 	(obj:0)
STE(3,10)                            8671.49979777766 	(obj:0)
STE(3,11)                            7013.24989888885 	(obj:0)
STE(3,12)                            8671.49979777762 	(obj:0)
STE(3,13)                            8671.49979777762 	(obj:0)
STE(3,14)                            10329.7496966664 	(obj:0)
STE(4,15)                            2436.75010111128 	(obj:0)
STE(4,16)                            4095.00000000008 	(obj:0)
STE(4,17)                            4095.00000000005 	(obj:0)
STE(4,18)                            5753.24989888885 	(obj:0)
STE(4,19)                            4095.00000000009 	(obj:0)
STE(4,20)                            5753.24989888889 	(obj:0)
STE(4,21)                            5753.24989888886 	(obj:0)
STE(4,22)                            7411.49979777766 	(obj:0)
STE(4,23)                            4095.00000000005 	(obj:0)
STE(4,24)                            5753.24989888885 	(obj:0)
STE(4,25)                            5753.24989888882 	(obj:0)
STE(4,26)                            7411.49979777762 	(obj:0)
STE(4,27)                            5753.24989888882 	(obj:0)
STE(4,28)                            7411.49979777762 	(obj:0)
STE(4,29)                            7411.49979777759 	(obj:0)
STE(4,30)                            9069.74969666639 	(obj:0)
STE(5,31)                           -481.499797777541 	(obj:0)
STE(5,32)                            1176.75010111128 	(obj:0)
STE(5,33)                            1176.75010111126 	(obj:0)
STE(5,34)                            2835.00000000008 	(obj:0)
STE(5,35)                            1176.75010111123 	(obj:0)
STE(5,36)                            2835.00000000005 	(obj:0)
STE(5,37)                            2835.00000000003 	(obj:0)
STE(5,38)                            4493.24989888885 	(obj:0)
STE(5,39)                            1176.75010111128 	(obj:0)
STE(5,40)                            2835.00000000009 	(obj:0)
STE(5,41)                            2835.00000000008 	(obj:0)
STE(5,42)                            4493.24989888889 	(obj:0)
STE(5,43)                            2835.00000000005 	(obj:0)
STE(5,44)                            4493.24989888886 	(obj:0)
STE(5,45)                            4493.24989888885 	(obj:0)
STE(5,46)                            6151.49979777766 	(obj:0)
STE(5,47)                            1176.75010111123 	(obj:0)
STE(5,48)                            2835.00000000005 	(obj:0)
STE(5,49)                            2835.00000000003 	(obj:0)
STE(5,50)                            4493.24989888885 	(obj:0)
STE(5,51)                                        2835 	(obj:0)
STE(5,52)                            4493.24989888882 	(obj:0)
STE(5,53)                             4493.2498988888 	(obj:0)
STE(5,54)                            6151.49979777762 	(obj:0)
STE(5,55)                                        2835 	(obj:0)
STE(5,56)                            4493.24989888882 	(obj:0)
STE(5,57)                             4493.2498988888 	(obj:0)
STE(5,58)                            6151.49979777762 	(obj:0)
STE(5,59)                            4493.24989888877 	(obj:0)
STE(5,60)                            6151.49979777759 	(obj:0)
STE(5,61)                            6151.49979777757 	(obj:0)
STE(5,62)                            7809.74969666639 	(obj:0)
STE(6,63)                           -3399.74969666639 	(obj:0)
STE(6,64)                           -1741.49979777754 	(obj:0)
STE(6,65)                           -1741.49979777757 	(obj:0)
STE(6,66)                           -83.2498988887237 	(obj:0)
STE(6,67)                           -1741.49979777759 	(obj:0)
STE(6,68)                           -83.2498988887416 	(obj:0)
STE(6,69)                           -83.2498988887699 	(obj:0)
STE(6,70)                            1575.00000000008 	(obj:0)
STE(6,71)                           -1741.49979777762 	(obj:0)
STE(6,72)                           -83.2498988887707 	(obj:0)
STE(6,73)                            -83.249898888799 	(obj:0)
STE(6,74)                            1575.00000000005 	(obj:0)
STE(6,75)                           -83.2498988888168 	(obj:0)
STE(6,76)                            1575.00000000003 	(obj:0)
STE(6,77)                                        1575 	(obj:0)
STE(6,78)                            3233.24989888885 	(obj:0)
STE(6,79)                           -1741.49979777757 	(obj:0)
STE(6,80)                           -83.2498988887243 	(obj:0)
STE(6,81)                           -83.2498988887528 	(obj:0)
STE(6,82)                            1575.00000000009 	(obj:0)
STE(6,83)                           -83.2498988887699 	(obj:0)
STE(6,84)                            1575.00000000008 	(obj:0)
STE(6,85)                            1575.00000000005 	(obj:0)
STE(6,86)                            3233.24989888889 	(obj:0)
STE(6,87)                           -83.2498988887987 	(obj:0)
STE(6,88)                            1575.00000000005 	(obj:0)
STE(6,89)                            1575.00000000002 	(obj:0)
STE(6,90)                            3233.24989888886 	(obj:0)
STE(6,91)                                        1575 	(obj:0)
STE(6,92)                            3233.24989888885 	(obj:0)
STE(6,93)                            3233.24989888882 	(obj:0)
STE(6,94)                            4891.49979777766 	(obj:0)
STE(6,95)                           -1741.49979777762 	(obj:0)
STE(6,96)                           -83.2498988887707 	(obj:0)
STE(6,97)                            -83.249898888799 	(obj:0)
STE(6,98)                            1575.00000000005 	(obj:0)
STE(6,99)                           -83.2498988888168 	(obj:0)
STE(6,100)                           1575.00000000003 	(obj:0)
STE(6,101)                                       1575 	(obj:0)
STE(6,102)                           3233.24989888885 	(obj:0)
STE(6,103)                          -83.2498988888459 	(obj:0)
STE(6,104)                                       1575 	(obj:0)
STE(6,105)                           1574.99999999997 	(obj:0)
STE(6,106)                           3233.24989888882 	(obj:0)
STE(6,107)                           1574.99999999995 	(obj:0)
STE(6,108)                            3233.2498988888 	(obj:0)
STE(6,109)                           3233.24989888877 	(obj:0)
STE(6,110)                           4891.49979777762 	(obj:0)
STE(6,111)                          -83.2498988888459 	(obj:0)
STE(6,112)                                       1575 	(obj:0)
STE(6,113)                           1574.99999999997 	(obj:0)
STE(6,114)                           3233.24989888882 	(obj:0)
STE(6,115)                           1574.99999999995 	(obj:0)
STE(6,116)                            3233.2498988888 	(obj:0)
STE(6,117)                           3233.24989888877 	(obj:0)
STE(6,118)                           4891.49979777762 	(obj:0)
STE(6,119)                           1574.99999999993 	(obj:0)
STE(6,120)                           3233.24989888877 	(obj:0)
STE(6,121)                           3233.24989888874 	(obj:0)
STE(6,122)                           4891.49979777759 	(obj:0)
STE(6,123)                           3233.24989888872 	(obj:0)
STE(6,124)                           4891.49979777757 	(obj:0)
STE(6,125)                           4891.49979777754 	(obj:0)
STE(6,126)                           6549.74969666639 	(obj:0)
y1(6,99)                             1492.42490899996 	(obj:0)
y1(6,101)                            1492.42490899996 	(obj:0)
y1(6,103)                            1492.42490899996 	(obj:0)
y1(6,105)                            1492.42490899996 	(obj:0)
y1(6,107)                            1492.42490899996 	(obj:0)
y1(6,109)                            1492.42490899996 	(obj:0)
y1(6,111)                            1492.42490899996 	(obj:0)
y1(6,113)                            1492.42490899996 	(obj:0)
y1(6,115)                            1492.42490899996 	(obj:0)
y1(6,117)                            1492.42490899996 	(obj:0)
y1(6,119)                            1492.42490899996 	(obj:0)
y1(6,121)                            1492.42490899996 	(obj:0)
y1(6,123)                            1492.42490899996 	(obj:0)
y1(6,125)                            1492.42490899996 	(obj:0)
BG(5)                                723.522421037921 	(obj:10)
BG(6)                                 1149.9306039128 	(obj:10)
AVE(1)                               3259.55177567504 	(obj:0)
AVE(2)                               3259.55588804169 	(obj:0)
AVE(3)                               3579.36165209166 	(obj:0)
AVE(4)                               3579.36576445831 	(obj:0)
AVE(5)                               3472.77007794174 	(obj:0)
AVE(6)                                3046.3618950668 	(obj:0)
WG(1)                                3259.55177567504 	(obj:10)
WG(2)                                3259.55588804169 	(obj:10)
WG(3)                                3579.36165209166 	(obj:10)
WG(4)                                3579.36576445831 	(obj:10)
WG(5)                                3472.77007794164 	(obj:10)
WG(6)                                3046.36189506679 	(obj:10)
BG(1)                                2443.09304269258 	(obj:10)
BG(2)                                936.736610937835 	(obj:10)
BG(3)                                 616.93084688784 	(obj:10)
BG(4)                                616.926734521256 	(obj:10)
y1(1,1)                               2968.6501820001 	(obj:0)
y1(1,2)                              1476.22527300025 	(obj:0)
y1(2,3)                              1492.42490899994 	(obj:0)
y1(2,5)                              1492.42490899989 	(obj:0)
y1(3,7)                              1492.42490899989 	(obj:0)
y1(3,9)                              1492.42490899989 	(obj:0)
y1(3,11)                             1492.42490899989 	(obj:0)
y1(3,13)                             1492.42490899989 	(obj:0)
y1(4,15)                             1492.42490899992 	(obj:0)
y1(4,17)                             1492.42490899992 	(obj:0)
y1(4,19)                             1492.42490899992 	(obj:0)
y1(4,21)                             1492.42490899992 	(obj:0)
y1(4,23)                             1492.42490899992 	(obj:0)
y1(4,25)                             1492.42490899992 	(obj:0)
y1(4,27)                             1492.42490899992 	(obj:0)
y1(4,29)                             1492.42490899992 	(obj:0)
y1(5,31)                             1492.42490899994 	(obj:0)
y1(5,33)                             1492.42490899994 	(obj:0)
y1(5,35)                             1492.42490899994 	(obj:0)
y1(5,37)                             1492.42490899994 	(obj:0)
y1(5,39)                             1492.42490899994 	(obj:0)
y1(5,41)                             1492.42490899994 	(obj:0)
y1(5,43)                             1492.42490899994 	(obj:0)
y1(5,45)                             1492.42490899994 	(obj:0)
y1(5,47)                             1492.42490899994 	(obj:0)
y1(5,49)                             1492.42490899994 	(obj:0)
y1(5,51)                             1492.42490899994 	(obj:0)
y1(5,53)                             1492.42490899994 	(obj:0)
y1(5,55)                             1492.42490899994 	(obj:0)
y1(5,57)                             1492.42490899994 	(obj:0)
y1(5,59)                             1492.42490899994 	(obj:0)
y1(5,61)                             1492.42490899994 	(obj:0)
y1(6,63)                             1492.42490899996 	(obj:0)
y1(6,65)                             1492.42490899996 	(obj:0)
y1(6,67)                             1492.42490899996 	(obj:0)
y1(6,69)                             1492.42490899996 	(obj:0)
y1(6,71)                             1492.42490899996 	(obj:0)
y1(6,73)                             1492.42490899996 	(obj:0)
y1(6,75)                             1492.42490899996 	(obj:0)
y1(6,77)                             1492.42490899996 	(obj:0)
y1(6,79)                             1492.42490899996 	(obj:0)
y1(6,81)                             1492.42490899996 	(obj:0)
y1(6,83)                             1492.42490899996 	(obj:0)
y1(6,85)                             1492.42490899996 	(obj:0)
y1(6,87)                             1492.42490899996 	(obj:0)
y1(6,89)                             1492.42490899996 	(obj:0)
y1(6,91)                             1492.42490899996 	(obj:0)
y1(6,93)                             1492.42490899996 	(obj:0)
y1(6,95)                             1492.42490899996 	(obj:0)
y1(6,97)                             1492.42490899996 	(obj:0)
